# 43454
param k := 6;
param n := 60;
param s := 1;
set E :=  (0,4) (0,5) (0,26) (1,13) (2,18) (3,36) (5,16) (5,23) (6,29) (6,50) (6,53) (7,29) (8,53) (9,20) (9,22) (10,42) (11,32) (11,40) (12,39) (13,26) (14,49) (15,18) (15,27) (15,52) (16,29) (16,37) (17,24) (17,45) (17,56) (17,59) (18,33) (18,47) (18,54) (19,39) (20,31) (20,48) (21,32) (21,37) (25,40) (26,41) (28,42) (29,51) (29,58) (30,44) (31,49) (31,56) (32,42) (33,39) (34,59) (35,43) (36,54) (38,49) (39,49) (40,56) (43,48) (44,46) (44,51) (50,55) (52,57);